\ LP format - for model browsing. Use MPS format to capture full model detail.
Minimize
  0 B10(0) + 0 B17(0) + 0 B18(0) + 0 B22(0) + 0 B23(0) + 0 B24(0) + 0 B28(0)
   + 0 B29(0) + 0 B31(0) + 0 B34(0) + 0 B35(0) + 0 B36(0) + 0 B37(0)
   + 0 B38(0) + 0 B40(0) + 0 B41(0) + 0 B42(0) + 0 B43(0) + 0 B45(0)
   + I56(1)
Subject To
 c0: B0(14) + B1(12) = 1
 c1: B2(14) = 1
 c2: B3(14) = 1
 c3: B4(12) + B5(14) = 1
 c4: B6(14) + B7(14) = 1
 c5: B8(14) + B9(14) = 1
 c6: - 1e+06 B0(14) + C46(16) <= 0
 c7: - 1e+06 B1(12) + C47(14) <= 0
 c8: - 1e+06 B2(14) + C48(14) <= 0
 c9: - 1e+06 B3(14) + C49(16) <= 0
 c10: - 1e+06 B4(12) + C50(12) <= 0
 c11: - 1e+06 B5(14) + C51(14) <= 0
 c12: - 1e+06 B6(14) + C52(16) <= 0
 c13: - 1e+06 B7(14) + C53(16) <= 0
 c14: - 1e+06 B8(14) + C54(14) <= 0
 c15: - 1e+06 B9(14) + C55(14) <= 0
 c16: - 1e+06 B0(14) - 1e+06 B2(14) - 1e+06 B11(2) + C46(16) - C48(14)
   >= -2.999827e+06
 c17: - 1e+06 B0(14) - 1e+06 B2(14) + 1e+06 B11(2) - C46(16) + C48(14)
   >= -1.999388e+06
 c18: - 1e+06 B1(12) - 1e+06 B3(14) - 1e+06 B12(2) + C47(14) - C49(16)
   >= -2.999759e+06
 c19: - 1e+06 B1(12) - 1e+06 B3(14) + 1e+06 B12(2) - C47(14) + C49(16)
   >= -1.999555e+06
 c20: - 1e+06 B0(14) - 1e+06 B4(12) - 1e+06 B13(4) + C46(16) - C50(12)
   >= -2.999601e+06
 c21: - 1e+06 B0(14) - 1e+06 B4(12) + 1e+06 B13(4) - C46(16) + C50(12)
   >= -1.999613e+06
 c22: - 1e+06 B1(12) - 1e+06 B5(14) - 1e+06 B13(4) + C47(14) - C51(14)
   >= -2.999707e+06
 c23: - 1e+06 B1(12) - 1e+06 B5(14) + 1e+06 B13(4) - C47(14) + C51(14)
   >= -1.999725e+06
 c24: - 1e+06 B0(14) - 1e+06 B6(14) - 1e+06 B14(4) + C46(16) - C52(16)
   >= -2.999833e+06
 c25: - 1e+06 B0(14) - 1e+06 B6(14) + 1e+06 B14(4) - C46(16) + C52(16)
   >= -1.999791e+06
 c26: - 1e+06 B1(12) - 1e+06 B7(14) - 1e+06 B14(4) + C47(14) - C53(16)
   >= -2.999886e+06
 c27: - 1e+06 B1(12) - 1e+06 B7(14) + 1e+06 B14(4) - C47(14) + C53(16)
   >= -1.999572e+06
 c28: - 1e+06 B0(14) - 1e+06 B8(14) - 1e+06 B15(4) + C46(16) - C54(14)
   >= -2.99977e+06
 c29: - 1e+06 B0(14) - 1e+06 B8(14) + 1e+06 B15(4) - C46(16) + C54(14)
   >= -1.999608e+06
 c30: - 1e+06 B1(12) - 1e+06 B9(14) - 1e+06 B15(4) + C47(14) - C55(14)
   >= -2.99925e+06
 c31: - 1e+06 B1(12) - 1e+06 B9(14) + 1e+06 B15(4) - C47(14) + C55(14)
   >= -1.99974e+06
 c32: - 1e+06 B0(14) - 1e+06 B2(14) - 1e+06 B16(2) - C46(16) + C48(14)
   >= -2.999388e+06
 c33: - 1e+06 B0(14) - 1e+06 B2(14) + 1e+06 B16(2) + C46(16) - C48(14)
   >= -1.999827e+06
 c34: - 1e+06 B2(14) - 1e+06 B4(12) - 1e+06 B19(2) + C48(14) - C50(12)
   >= -2.999347e+06
 c35: - 1e+06 B2(14) - 1e+06 B4(12) + 1e+06 B19(2) - C48(14) + C50(12)
   >= -1.999561e+06
 c36: - 1e+06 B2(14) - 1e+06 B6(14) - 1e+06 B20(2) + C48(14) - C52(16)
   >= -2.999307e+06
 c37: - 1e+06 B2(14) - 1e+06 B6(14) + 1e+06 B20(2) - C48(14) + C52(16)
   >= -1.999844e+06
 c38: - 1e+06 B2(14) - 1e+06 B8(14) - 1e+06 B21(2) + C48(14) - C54(14)
   >= -2.999674e+06
 c39: - 1e+06 B2(14) - 1e+06 B8(14) + 1e+06 B21(2) - C48(14) + C54(14)
   >= -1.999425e+06
 c40: - 1e+06 B3(14) - 1e+06 B5(14) - 1e+06 B25(2) + C49(16) - C51(14)
   >= -2.999615e+06
 c41: - 1e+06 B3(14) - 1e+06 B5(14) + 1e+06 B25(2) - C49(16) + C51(14)
   >= -1.999603e+06
 c42: - 1e+06 B3(14) - 1e+06 B7(14) - 1e+06 B26(2) + C49(16) - C53(16)
   >= -2.999574e+06
 c43: - 1e+06 B3(14) - 1e+06 B7(14) + 1e+06 B26(2) - C49(16) + C53(16)
   >= -1.999588e+06
 c44: - 1e+06 B3(14) - 1e+06 B9(14) - 1e+06 B27(2) + C49(16) - C55(14)
   >= -2.999685e+06
 c45: - 1e+06 B3(14) - 1e+06 B9(14) + 1e+06 B27(2) - C49(16) + C55(14)
   >= -1.999814e+06
 c46: - 1e+06 B3(14) - 1e+06 B5(14) - 1e+06 B30(2) - C49(16) + C51(14)
   >= -2.999603e+06
 c47: - 1e+06 B3(14) - 1e+06 B5(14) + 1e+06 B30(2) + C49(16) - C51(14)
   >= -1.999615e+06
 c48: - 1e+06 B4(12) - 1e+06 B6(14) - 1e+06 B32(4) + C50(12) - C52(16)
   >= -2.999699e+06
 c49: - 1e+06 B4(12) - 1e+06 B6(14) + 1e+06 B32(4) - C50(12) + C52(16)
   >= -1.999805e+06
 c50: - 1e+06 B5(14) - 1e+06 B7(14) - 1e+06 B32(4) + C51(14) - C53(16)
   >= -2.999459e+06
 c51: - 1e+06 B5(14) - 1e+06 B7(14) + 1e+06 B32(4) - C51(14) + C53(16)
   >= -1.999826e+06
 c52: - 1e+06 B4(12) - 1e+06 B8(14) - 1e+06 B33(4) + C50(12) - C54(14)
   >= -2.999705e+06
 c53: - 1e+06 B4(12) - 1e+06 B8(14) + 1e+06 B33(4) - C50(12) + C54(14)
   >= -1.999628e+06
 c54: - 1e+06 B5(14) - 1e+06 B9(14) - 1e+06 B33(4) + C51(14) - C55(14)
   >= -2.999665e+06
 c55: - 1e+06 B5(14) - 1e+06 B9(14) + 1e+06 B33(4) - C51(14) + C55(14)
   >= -1.999893e+06
 c56: - 1e+06 B6(14) - 1e+06 B8(14) - 1e+06 B39(4) + C52(16) - C54(14)
   >= -2.999814e+06
 c57: - 1e+06 B6(14) - 1e+06 B8(14) + 1e+06 B39(4) - C52(16) + C54(14)
   >= -1.999798e+06
 c58: - 1e+06 B7(14) - 1e+06 B9(14) - 1e+06 B39(4) + C53(16) - C55(14)
   >= -2.999769e+06
 c59: - 1e+06 B7(14) - 1e+06 B9(14) + 1e+06 B39(4) - C53(16) + C55(14)
   >= -1.999576e+06
 c60: - 1e+06 B6(14) - 1e+06 B8(14) - 1e+06 B44(4) - C52(16) + C54(14)
   >= -2.999798e+06
 c61: - 1e+06 B6(14) - 1e+06 B8(14) + 1e+06 B44(4) + C52(16) - C54(14)
   >= -1.999814e+06
 c62: - 1e+06 B7(14) - 1e+06 B9(14) - 1e+06 B44(4) - C53(16) + C55(14)
   >= -2.999576e+06
 c63: - 1e+06 B7(14) - 1e+06 B9(14) + 1e+06 B44(4) + C53(16) - C55(14)
   >= -1.999769e+06
 c64: C46(16) >= 0
 c65: C47(14) >= 0
 c66: C48(14) >= 0
 c67: - 480 B2(14) + C48(14) >= 0
 c68: C49(16) >= 0
 c69: C50(12) >= 0
 c70: - 480 B4(12) + C50(12) >= 0
 c71: C51(14) >= 0
 c72: - 480 B5(14) + C51(14) >= 0
 c73: C52(16) >= 0
 c74: C53(16) >= 0
 c75: C54(14) >= 0
 c76: - 480 B8(14) + C54(14) >= 0
 c77: C55(14) >= 0
 c78: - 480 B9(14) + C55(14) >= 0
 c79: - 43 B2(14) + C46(16) + C47(14) - C48(14) >= 0
 c80: - 63 B4(12) - 53 B5(14) + C49(16) - C50(12) - C51(14) >= 0
 c81: - 125 B8(14) - 135 B9(14) + C52(16) + C53(16) - C54(14) - C55(14)
   >= 0
 c82: 87 B0(14) + C46(16) - 1e+06 B57(4) >= -999520
 c83: 87 B0(14) + C46(16) - 1e+06 B57(4) <= 480
 c84: 95 B1(12) + C47(14) - 1e+06 B58(4) >= -999520
 c85: 95 B1(12) + C47(14) - 1e+06 B58(4) <= 480
 c86: 73 B3(14) + C49(16) - 1e+06 B59(4) >= -999520
 c87: 73 B3(14) + C49(16) - 1e+06 B59(4) <= 480
 c88: 43 B6(14) + C52(16) - 1e+06 B60(4) >= -999520
 c89: 43 B6(14) + C52(16) - 1e+06 B60(4) <= 480
 c90: 61 B7(14) + C53(16) - 1e+06 B61(4) >= -999520
 c91: 61 B7(14) + C53(16) - 1e+06 B61(4) <= 480
 qc0: I56(1) + 393 B57(4) + 385 B58(4) + 407 B59(4) + 437 B60(4)
   + 419 B61(4) + [ - C46(16) * B57(4) - C47(14) * B58(4)
   - C49(16) * B59(4) - C52(16) * B60(4) - C53(16) * B61(4) ] >= 0
Bounds
Binaries
 B0(14) B1(12) B2(14) B3(14) B4(12) B5(14) B6(14) B7(14) B8(14) B9(14)
 B10(0) B11(2) B12(2) B13(4) B14(4) B15(4) B16(2) B17(0) B18(0) B19(2)
 B20(2) B21(2) B22(0) B23(0) B24(0) B25(2) B26(2) B27(2) B28(0) B29(0)
 B30(2) B31(0) B32(4) B33(4) B34(0) B35(0) B36(0) B37(0) B38(0) B39(4)
 B40(0) B41(0) B42(0) B43(0) B44(4) B45(0) B57(4) B58(4) B59(4) B60(4)
 B61(4)
Generals
 I56(1)
End
